######### Spin Hall Conductivity
#berry                 = true
berry_task            = shc
berry_kmesh           = 50 50 50
berry_curv_unit       = ang2

# Activate the two lines below to obtain a smoother Berry curvature
# berry_curv_adpt_kmesh = 5
# berry_curv_adpt_kmesh_thresh = 100.0

shc_freq_scan = false
shc_alpha = 1
shc_beta  = 2
shc_gamma = 3

######### Fermi Scan Section
fermi_energy_min      = 7.9269
fermi_energy_max      = 9.9269
fermi_energy_step     = 0.05

######### Berry Curvature-like Term Section
# Comment out "berry = true" in the "Spin Hall Conductivity" section
# Comment out "kpath = true"
# Comment out "fermi_energy" and the entire "Fermi Scan Section"

#kpath                = true
kpath_task            = bands+shc
kpath_bands_colour    = shc
kpath_num_points      = 400
#kubo_adpt_smr         = false
#kubo_smr_fixed_en_width = 0.05
#fermi_energy          = 9.5447


########## Heatmap Plot
# Comment out "kpath = true"
# Comment out the entire "Fermi Scan Section"
# Uncomment "kubo_smr_fixed_en_width" in the "Berry Curvature-like Term" section

#kslice               = true
kslice_task          = shc+fermi_lines
kslice_corner        = 0.0  0.00  0.0
kslice_b1            = 1.0  0.00  1.00
kslice_b2            = 0.0  1.00  0.00
kslice_2dkmesh       = 400 400

###!!! -- Begin of BoltzWann input -- !!!
boltzwann                    = true
boltz_calc_also_dos          = true
boltz_dos_energy_step        = 0.01
smr_type                     = gauss
boltz_dos_adpt_smr           = false
boltz_dos_smr_fixed_en_width = 0.03
kmesh                        = 50
boltz_mu_min                 = 7.9269
boltz_mu_max                 = 9.9269
boltz_mu_step                = 0.05
boltz_temp_min               = 0.01
boltz_temp_max               = 301.01
boltz_temp_step              = 50
boltz_relax_time             = 10.
##!! Next variable is commented because 2 is its default value
#num_elec_per_state          = 2
##!!! --- End of BoltzWann input --- !!!

num_bands             = 432
num_wann              = 160
num_iter              = 0
spinors               = true

dis_win_min          = -2.000
dis_win_max          = 13.600
dis_froz_min         = -1.000
dis_froz_max         = 13.200

begin projections
  Bi: s
  Pb: s
   O: p
end projections

write_hr              = .TRUE.
write_hr_diag         = .TRUE.
#wannier_plot          = .TRUE.
bands_plot            = .TRUE.
use_ws_distance       = .TRUE.

begin kpoint_path
G	0.0000000000	0.0000000000	0.0000000000	X	0.0000000000	0.5000000000	0.0000000000
X	0.0000000000	0.5000000000	0.0000000000	M	0.5000000000	0.5000000000	0.0000000000
M	0.5000000000	0.5000000000	0.0000000000	R	0.5000000000	0.5000000000	0.5000000000
R	0.5000000000	0.5000000000	0.5000000000	G	0.0000000000 	0.0000000000 	0.0000000000
G	0.0000000000 	0.0000000000 	0.0000000000	M	0.5000000000	0.5000000000	0.0000000000
end kpoint_path

begin unit_cell_cart
ang
      8.7433556510       0.0000000000       0.0000000000
      0.0000000000       8.7433556510       0.0000000000
      0.0000000000       0.0000000000       8.7433556510
end unit_cell_cart

begin atoms_frac
Ba           0.2500000000       0.2500000000       0.2500000000
Ba           0.2500000000       0.2500000000       0.7500000000
Ba           0.2500000000       0.7500000000       0.2500000000
Ba           0.2500000000       0.7500000000       0.7500000000
Ba           0.7500000000       0.2500000000       0.2500000000
Ba           0.7500000000       0.2500000000       0.7500000000
Ba           0.7500000000       0.7500000000       0.2500000000
Ba           0.7500000000       0.7500000000       0.7500000000
Bi           0.0000000000       0.0000000000       0.0000000000
Pb           0.5000000000       0.5000000000       0.5000000000
Pb           0.0000000000       0.0000000000       0.5000000000
Pb           0.0000000000       0.5000000000       0.0000000000
Pb           0.0000000000       0.5000000000       0.5000000000
Pb           0.5000000000       0.0000000000       0.0000000000
Pb           0.5000000000       0.0000000000       0.5000000000
Pb           0.5000000000       0.5000000000       0.0000000000
O            0.0000000000       0.2500000000       0.0000000000
O            0.0000000000       0.2500000000       0.5000000000
O            0.0000000000       0.7500000000       0.0000000000
O            0.0000000000       0.7500000000       0.5000000000
O            0.5000000000       0.2500000000       0.0000000000
O            0.5000000000       0.2500000000       0.5000000000
O            0.5000000000       0.7500000000       0.0000000000
O            0.5000000000       0.7500000000       0.5000000000
O            0.0000000000       0.0000000000       0.2500000000
O            0.0000000000       0.0000000000       0.7500000000
O            0.0000000000       0.5000000000       0.2500000000
O            0.0000000000       0.5000000000       0.7500000000
O            0.5000000000       0.0000000000       0.2500000000
O            0.5000000000       0.0000000000       0.7500000000
O            0.5000000000       0.5000000000       0.2500000000
O            0.5000000000       0.5000000000       0.7500000000
O            0.2500000000       0.0000000000       0.0000000000
O            0.2500000000       0.0000000000       0.5000000000
O            0.2500000000       0.5000000000       0.0000000000
O            0.2500000000       0.5000000000       0.5000000000
O            0.7500000000       0.0000000000       0.0000000000
O            0.7500000000       0.0000000000       0.5000000000
O            0.7500000000       0.5000000000       0.0000000000
O            0.7500000000       0.5000000000       0.5000000000
end atoms_frac

mp_grid :  4 4 4

begin kpoints
  0.00000000  0.00000000  0.00000000	0.015625
  0.00000000  0.00000000  0.25000000	0.015625
  0.00000000  0.00000000  0.50000000	0.015625
  0.00000000  0.00000000  0.75000000	0.015625
  0.00000000  0.25000000  0.00000000	0.015625
  0.00000000  0.25000000  0.25000000	0.015625
  0.00000000  0.25000000  0.50000000	0.015625
  0.00000000  0.25000000  0.75000000	0.015625
  0.00000000  0.50000000  0.00000000	0.015625
  0.00000000  0.50000000  0.25000000	0.015625
  0.00000000  0.50000000  0.50000000	0.015625
  0.00000000  0.50000000  0.75000000	0.015625
  0.00000000  0.75000000  0.00000000	0.015625
  0.00000000  0.75000000  0.25000000	0.015625
  0.00000000  0.75000000  0.50000000	0.015625
  0.00000000  0.75000000  0.75000000	0.015625
  0.25000000  0.00000000  0.00000000	0.015625
  0.25000000  0.00000000  0.25000000	0.015625
  0.25000000  0.00000000  0.50000000	0.015625
  0.25000000  0.00000000  0.75000000	0.015625
  0.25000000  0.25000000  0.00000000	0.015625
  0.25000000  0.25000000  0.25000000	0.015625
  0.25000000  0.25000000  0.50000000	0.015625
  0.25000000  0.25000000  0.75000000	0.015625
  0.25000000  0.50000000  0.00000000	0.015625
  0.25000000  0.50000000  0.25000000	0.015625
  0.25000000  0.50000000  0.50000000	0.015625
  0.25000000  0.50000000  0.75000000	0.015625
  0.25000000  0.75000000  0.00000000	0.015625
  0.25000000  0.75000000  0.25000000	0.015625
  0.25000000  0.75000000  0.50000000	0.015625
  0.25000000  0.75000000  0.75000000	0.015625
  0.50000000  0.00000000  0.00000000	0.015625
  0.50000000  0.00000000  0.25000000	0.015625
  0.50000000  0.00000000  0.50000000	0.015625
  0.50000000  0.00000000  0.75000000	0.015625
  0.50000000  0.25000000  0.00000000	0.015625
  0.50000000  0.25000000  0.25000000	0.015625
  0.50000000  0.25000000  0.50000000	0.015625
  0.50000000  0.25000000  0.75000000	0.015625
  0.50000000  0.50000000  0.00000000	0.015625
  0.50000000  0.50000000  0.25000000	0.015625
  0.50000000  0.50000000  0.50000000	0.015625
  0.50000000  0.50000000  0.75000000	0.015625
  0.50000000  0.75000000  0.00000000	0.015625
  0.50000000  0.75000000  0.25000000	0.015625
  0.50000000  0.75000000  0.50000000	0.015625
  0.50000000  0.75000000  0.75000000	0.015625
  0.75000000  0.00000000  0.00000000	0.015625
  0.75000000  0.00000000  0.25000000	0.015625
  0.75000000  0.00000000  0.50000000	0.015625
  0.75000000  0.00000000  0.75000000	0.015625
  0.75000000  0.25000000  0.00000000	0.015625
  0.75000000  0.25000000  0.25000000	0.015625
  0.75000000  0.25000000  0.50000000	0.015625
  0.75000000  0.25000000  0.75000000	0.015625
  0.75000000  0.50000000  0.00000000	0.015625
  0.75000000  0.50000000  0.25000000	0.015625
  0.75000000  0.50000000  0.50000000	0.015625
  0.75000000  0.50000000  0.75000000	0.015625
  0.75000000  0.75000000  0.00000000	0.015625
  0.75000000  0.75000000  0.25000000	0.015625
  0.75000000  0.75000000  0.50000000	0.015625
  0.75000000  0.75000000  0.75000000	0.015625
end kpoints
