######### Spin Hall Conductivity
berry                 = true
berry_task            = shc
berry_kmesh           = 64 64 64
berry_curv_unit       = ang2

# Activate the two lines below to obtain a smoother Berry curvature
berry_curv_adpt_kmesh = 10
berry_curv_adpt_kmesh_thresh = 200.0

shc_freq_scan = false
shc_alpha = 1
shc_beta  = 2
shc_gamma = 3

######### Fermi Scan Section
fermi_energy_min      = 5.5617
fermi_energy_max      = 11.5617
fermi_energy_step     = 0.01

######### Berry Curvature-like Term Section
# Comment out "berry = true" in the "Spin Hall Conductivity" section
# Comment out "kpath = true"
# Comment out "fermi_energy" and the entire "Fermi Scan Section"

#kpath                 = true
kpath_task            = bands+shc
kpath_bands_colour    = shc
kpath_num_points      = 400
kubo_adpt_smr         = false
kubo_smr_fixed_en_width = 0.05
#fermi_energy          = 8.5617


########## Heatmap Plot
# Comment out "kpath = true"
# Comment out the entire "Fermi Scan Section"
# Uncomment "kubo_smr_fixed_en_width" in the "Berry Curvature-like Term" section

#kslice               = true
kslice_task          = shc+fermi_lines
kslice_corner        = 0.0  0.00  0.0
kslice_b1            = 1.0  0.00  1.00
kslice_b2            = 0.0  1.00  0.00
kslice_2dkmesh       = 400 400

num_bands             = 54
num_wann              = 20
num_iter              = 0
spinors               = true

!dis_win_min          = -10
!dis_win_max          = 20
dis_froz_min         = -1
dis_froz_max         = 13

begin projections
  Pb: s
   O: p
end projections

write_hr              = .TRUE.
write_hr_diag         = .TRUE.
#wannier_plot          = .TRUE.
bands_plot            = .TRUE.
use_ws_distance       = .TRUE.

#begin kpoint_path
#G	0.0000000000	0.0000000000	0.0000000000	X	0.0000000000	0.5000000000	0.0000000000
#X	0.0000000000	0.5000000000	0.0000000000	M	0.5000000000	0.5000000000	0.0000000000
#M	0.5000000000	0.5000000000	0.0000000000	R	0.5000000000	0.5000000000	0.5000000000
#R	0.5000000000	0.5000000000	0.5000000000	G	0.0000000000 	0.0000000000 	0.0000000000
#G	0.0000000000 	0.0000000000 	0.0000000000	M	0.5000000000	0.5000000000	0.0000000000
#end kpoint_path

begin kpoint_path
M       0.5000000000    0.5000000000    0.0000000000	G       0.0000000000    0.0000000000    0.0000000000
G       0.0000000000    0.0000000000    0.0000000000    X       0.0000000000    0.5000000000    0.0000000000
X       0.0000000000    0.5000000000    0.0000000000    M       0.5000000000    0.5000000000    0.0000000000
M       0.5000000000    0.5000000000    0.0000000000    R       0.5000000000    0.5000000000    0.5000000000
R       0.5000000000    0.5000000000    0.5000000000    G       0.0000000000    0.0000000000    0.0000000000
G       0.0000000000    0.0000000000    0.0000000000    Z       0.0000000000    0.0000000000    0.5000000000
end kpoint_path

begin unit_cell_cart
ang
   4.360222678   0.000000000   0.000000000
   0.000000000   4.360222678   0.000000000
   0.000000000   0.000000000   4.360222678
end unit_cell_cart

begin atoms_frac
Ba           0.5000000000       0.5000000000       0.5000000000
Pb           0.0000000000       0.0000000000       0.0000000000
O            0.5000000000       0.0000000000       0.0000000000
O            0.0000000000       0.5000000000       0.0000000000
O            0.0000000000       0.0000000000       0.5000000000
end atoms_frac

mp_grid :  16 16 16

begin kpoints
  0.00000000  0.00000000  0.00000000	0.000244140625
  0.00000000  0.00000000  0.06250000	0.000244140625
  0.00000000  0.00000000  0.12500000	0.000244140625
  0.00000000  0.00000000  0.18750000	0.000244140625
  0.00000000  0.00000000  0.25000000	0.000244140625
  0.00000000  0.00000000  0.31250000	0.000244140625
  0.00000000  0.00000000  0.37500000	0.000244140625
  0.00000000  0.00000000  0.43750000	0.000244140625
  0.00000000  0.00000000  0.50000000	0.000244140625
  0.00000000  0.00000000  0.56250000	0.000244140625
  0.00000000  0.00000000  0.62500000	0.000244140625
  0.00000000  0.00000000  0.68750000	0.000244140625
  0.00000000  0.00000000  0.75000000	0.000244140625
  0.00000000  0.00000000  0.81250000	0.000244140625
  0.00000000  0.00000000  0.87500000	0.000244140625
  0.00000000  0.00000000  0.93750000	0.000244140625
  0.00000000  0.06250000  0.00000000	0.000244140625
  0.00000000  0.06250000  0.06250000	0.000244140625
  0.00000000  0.06250000  0.12500000	0.000244140625
  0.00000000  0.06250000  0.18750000	0.000244140625
  0.00000000  0.06250000  0.25000000	0.000244140625
  0.00000000  0.06250000  0.31250000	0.000244140625
  0.00000000  0.06250000  0.37500000	0.000244140625
  0.00000000  0.06250000  0.43750000	0.000244140625
  0.00000000  0.06250000  0.50000000	0.000244140625
  0.00000000  0.06250000  0.56250000	0.000244140625
  0.00000000  0.06250000  0.62500000	0.000244140625
  0.00000000  0.06250000  0.68750000	0.000244140625
  0.00000000  0.06250000  0.75000000	0.000244140625
  0.00000000  0.06250000  0.81250000	0.000244140625
  0.00000000  0.06250000  0.87500000	0.000244140625
  0.00000000  0.06250000  0.93750000	0.000244140625
  0.00000000  0.12500000  0.00000000	0.000244140625
  0.00000000  0.12500000  0.06250000	0.000244140625
  0.00000000  0.12500000  0.12500000	0.000244140625
  0.00000000  0.12500000  0.18750000	0.000244140625
  0.00000000  0.12500000  0.25000000	0.000244140625
  0.00000000  0.12500000  0.31250000	0.000244140625
  0.00000000  0.12500000  0.37500000	0.000244140625
  0.00000000  0.12500000  0.43750000	0.000244140625
  0.00000000  0.12500000  0.50000000	0.000244140625
  0.00000000  0.12500000  0.56250000	0.000244140625
  0.00000000  0.12500000  0.62500000	0.000244140625
  0.00000000  0.12500000  0.68750000	0.000244140625
  0.00000000  0.12500000  0.75000000	0.000244140625
  0.00000000  0.12500000  0.81250000	0.000244140625
  0.00000000  0.12500000  0.87500000	0.000244140625
  0.00000000  0.12500000  0.93750000	0.000244140625
  0.00000000  0.18750000  0.00000000	0.000244140625
  0.00000000  0.18750000  0.06250000	0.000244140625
  0.00000000  0.18750000  0.12500000	0.000244140625
  0.00000000  0.18750000  0.18750000	0.000244140625
  0.00000000  0.18750000  0.25000000	0.000244140625
  0.00000000  0.18750000  0.31250000	0.000244140625
  0.00000000  0.18750000  0.37500000	0.000244140625
  0.00000000  0.18750000  0.43750000	0.000244140625
  0.00000000  0.18750000  0.50000000	0.000244140625
  0.00000000  0.18750000  0.56250000	0.000244140625
  0.00000000  0.18750000  0.62500000	0.000244140625
  0.00000000  0.18750000  0.68750000	0.000244140625
  0.00000000  0.18750000  0.75000000	0.000244140625
  0.00000000  0.18750000  0.81250000	0.000244140625
  0.00000000  0.18750000  0.87500000	0.000244140625
  0.00000000  0.18750000  0.93750000	0.000244140625
  0.00000000  0.25000000  0.00000000	0.000244140625
  0.00000000  0.25000000  0.06250000	0.000244140625
  0.00000000  0.25000000  0.12500000	0.000244140625
  0.00000000  0.25000000  0.18750000	0.000244140625
  0.00000000  0.25000000  0.25000000	0.000244140625
  0.00000000  0.25000000  0.31250000	0.000244140625
  0.00000000  0.25000000  0.37500000	0.000244140625
  0.00000000  0.25000000  0.43750000	0.000244140625
  0.00000000  0.25000000  0.50000000	0.000244140625
  0.00000000  0.25000000  0.56250000	0.000244140625
  0.00000000  0.25000000  0.62500000	0.000244140625
  0.00000000  0.25000000  0.68750000	0.000244140625
  0.00000000  0.25000000  0.75000000	0.000244140625
  0.00000000  0.25000000  0.81250000	0.000244140625
  0.00000000  0.25000000  0.87500000	0.000244140625
  0.00000000  0.25000000  0.93750000	0.000244140625
  0.00000000  0.31250000  0.00000000	0.000244140625
  0.00000000  0.31250000  0.06250000	0.000244140625
  0.00000000  0.31250000  0.12500000	0.000244140625
  0.00000000  0.31250000  0.18750000	0.000244140625
  0.00000000  0.31250000  0.25000000	0.000244140625
  0.00000000  0.31250000  0.31250000	0.000244140625
  0.00000000  0.31250000  0.37500000	0.000244140625
  0.00000000  0.31250000  0.43750000	0.000244140625
  0.00000000  0.31250000  0.50000000	0.000244140625
  0.00000000  0.31250000  0.56250000	0.000244140625
  0.00000000  0.31250000  0.62500000	0.000244140625
  0.00000000  0.31250000  0.68750000	0.000244140625
  0.00000000  0.31250000  0.75000000	0.000244140625
  0.00000000  0.31250000  0.81250000	0.000244140625
  0.00000000  0.31250000  0.87500000	0.000244140625
  0.00000000  0.31250000  0.93750000	0.000244140625
  0.00000000  0.37500000  0.00000000	0.000244140625
  0.00000000  0.37500000  0.06250000	0.000244140625
  0.00000000  0.37500000  0.12500000	0.000244140625
  0.00000000  0.37500000  0.18750000	0.000244140625
  0.00000000  0.37500000  0.25000000	0.000244140625
  0.00000000  0.37500000  0.31250000	0.000244140625
  0.00000000  0.37500000  0.37500000	0.000244140625
  0.00000000  0.37500000  0.43750000	0.000244140625
  0.00000000  0.37500000  0.50000000	0.000244140625
  0.00000000  0.37500000  0.56250000	0.000244140625
  0.00000000  0.37500000  0.62500000	0.000244140625
  0.00000000  0.37500000  0.68750000	0.000244140625
  0.00000000  0.37500000  0.75000000	0.000244140625
  0.00000000  0.37500000  0.81250000	0.000244140625
  0.00000000  0.37500000  0.87500000	0.000244140625
  0.00000000  0.37500000  0.93750000	0.000244140625
  0.00000000  0.43750000  0.00000000	0.000244140625
  0.00000000  0.43750000  0.06250000	0.000244140625
  0.00000000  0.43750000  0.12500000	0.000244140625
  0.00000000  0.43750000  0.18750000	0.000244140625
  0.00000000  0.43750000  0.25000000	0.000244140625
  0.00000000  0.43750000  0.31250000	0.000244140625
  0.00000000  0.43750000  0.37500000	0.000244140625
  0.00000000  0.43750000  0.43750000	0.000244140625
  0.00000000  0.43750000  0.50000000	0.000244140625
  0.00000000  0.43750000  0.56250000	0.000244140625
  0.00000000  0.43750000  0.62500000	0.000244140625
  0.00000000  0.43750000  0.68750000	0.000244140625
  0.00000000  0.43750000  0.75000000	0.000244140625
  0.00000000  0.43750000  0.81250000	0.000244140625
  0.00000000  0.43750000  0.87500000	0.000244140625
  0.00000000  0.43750000  0.93750000	0.000244140625
  0.00000000  0.50000000  0.00000000	0.000244140625
  0.00000000  0.50000000  0.06250000	0.000244140625
  0.00000000  0.50000000  0.12500000	0.000244140625
  0.00000000  0.50000000  0.18750000	0.000244140625
  0.00000000  0.50000000  0.25000000	0.000244140625
  0.00000000  0.50000000  0.31250000	0.000244140625
  0.00000000  0.50000000  0.37500000	0.000244140625
  0.00000000  0.50000000  0.43750000	0.000244140625
  0.00000000  0.50000000  0.50000000	0.000244140625
  0.00000000  0.50000000  0.56250000	0.000244140625
  0.00000000  0.50000000  0.62500000	0.000244140625
  0.00000000  0.50000000  0.68750000	0.000244140625
  0.00000000  0.50000000  0.75000000	0.000244140625
  0.00000000  0.50000000  0.81250000	0.000244140625
  0.00000000  0.50000000  0.87500000	0.000244140625
  0.00000000  0.50000000  0.93750000	0.000244140625
  0.00000000  0.56250000  0.00000000	0.000244140625
  0.00000000  0.56250000  0.06250000	0.000244140625
  0.00000000  0.56250000  0.12500000	0.000244140625
  0.00000000  0.56250000  0.18750000	0.000244140625
  0.00000000  0.56250000  0.25000000	0.000244140625
  0.00000000  0.56250000  0.31250000	0.000244140625
  0.00000000  0.56250000  0.37500000	0.000244140625
  0.00000000  0.56250000  0.43750000	0.000244140625
  0.00000000  0.56250000  0.50000000	0.000244140625
  0.00000000  0.56250000  0.56250000	0.000244140625
  0.00000000  0.56250000  0.62500000	0.000244140625
  0.00000000  0.56250000  0.68750000	0.000244140625
  0.00000000  0.56250000  0.75000000	0.000244140625
  0.00000000  0.56250000  0.81250000	0.000244140625
  0.00000000  0.56250000  0.87500000	0.000244140625
  0.00000000  0.56250000  0.93750000	0.000244140625
  0.00000000  0.62500000  0.00000000	0.000244140625
  0.00000000  0.62500000  0.06250000	0.000244140625
  0.00000000  0.62500000  0.12500000	0.000244140625
  0.00000000  0.62500000  0.18750000	0.000244140625
  0.00000000  0.62500000  0.25000000	0.000244140625
  0.00000000  0.62500000  0.31250000	0.000244140625
  0.00000000  0.62500000  0.37500000	0.000244140625
  0.00000000  0.62500000  0.43750000	0.000244140625
  0.00000000  0.62500000  0.50000000	0.000244140625
  0.00000000  0.62500000  0.56250000	0.000244140625
  0.00000000  0.62500000  0.62500000	0.000244140625
  0.00000000  0.62500000  0.68750000	0.000244140625
  0.00000000  0.62500000  0.75000000	0.000244140625
  0.00000000  0.62500000  0.81250000	0.000244140625
  0.00000000  0.62500000  0.87500000	0.000244140625
  0.00000000  0.62500000  0.93750000	0.000244140625
  0.00000000  0.68750000  0.00000000	0.000244140625
  0.00000000  0.68750000  0.06250000	0.000244140625
  0.00000000  0.68750000  0.12500000	0.000244140625
  0.00000000  0.68750000  0.18750000	0.000244140625
  0.00000000  0.68750000  0.25000000	0.000244140625
  0.00000000  0.68750000  0.31250000	0.000244140625
  0.00000000  0.68750000  0.37500000	0.000244140625
  0.00000000  0.68750000  0.43750000	0.000244140625
  0.00000000  0.68750000  0.50000000	0.000244140625
  0.00000000  0.68750000  0.56250000	0.000244140625
  0.00000000  0.68750000  0.62500000	0.000244140625
  0.00000000  0.68750000  0.68750000	0.000244140625
  0.00000000  0.68750000  0.75000000	0.000244140625
  0.00000000  0.68750000  0.81250000	0.000244140625
  0.00000000  0.68750000  0.87500000	0.000244140625
  0.00000000  0.68750000  0.93750000	0.000244140625
  0.00000000  0.75000000  0.00000000	0.000244140625
  0.00000000  0.75000000  0.06250000	0.000244140625
  0.00000000  0.75000000  0.12500000	0.000244140625
  0.00000000  0.75000000  0.18750000	0.000244140625
  0.00000000  0.75000000  0.25000000	0.000244140625
  0.00000000  0.75000000  0.31250000	0.000244140625
  0.00000000  0.75000000  0.37500000	0.000244140625
  0.00000000  0.75000000  0.43750000	0.000244140625
  0.00000000  0.75000000  0.50000000	0.000244140625
  0.00000000  0.75000000  0.56250000	0.000244140625
  0.00000000  0.75000000  0.62500000	0.000244140625
  0.00000000  0.75000000  0.68750000	0.000244140625
  0.00000000  0.75000000  0.75000000	0.000244140625
  0.00000000  0.75000000  0.81250000	0.000244140625
  0.00000000  0.75000000  0.87500000	0.000244140625
  0.00000000  0.75000000  0.93750000	0.000244140625
  0.00000000  0.81250000  0.00000000	0.000244140625
  0.00000000  0.81250000  0.06250000	0.000244140625
  0.00000000  0.81250000  0.12500000	0.000244140625
  0.00000000  0.81250000  0.18750000	0.000244140625
  0.00000000  0.81250000  0.25000000	0.000244140625
  0.00000000  0.81250000  0.31250000	0.000244140625
  0.00000000  0.81250000  0.37500000	0.000244140625
  0.00000000  0.81250000  0.43750000	0.000244140625
  0.00000000  0.81250000  0.50000000	0.000244140625
  0.00000000  0.81250000  0.56250000	0.000244140625
  0.00000000  0.81250000  0.62500000	0.000244140625
  0.00000000  0.81250000  0.68750000	0.000244140625
  0.00000000  0.81250000  0.75000000	0.000244140625
  0.00000000  0.81250000  0.81250000	0.000244140625
  0.00000000  0.81250000  0.87500000	0.000244140625
  0.00000000  0.81250000  0.93750000	0.000244140625
  0.00000000  0.87500000  0.00000000	0.000244140625
  0.00000000  0.87500000  0.06250000	0.000244140625
  0.00000000  0.87500000  0.12500000	0.000244140625
  0.00000000  0.87500000  0.18750000	0.000244140625
  0.00000000  0.87500000  0.25000000	0.000244140625
  0.00000000  0.87500000  0.31250000	0.000244140625
  0.00000000  0.87500000  0.37500000	0.000244140625
  0.00000000  0.87500000  0.43750000	0.000244140625
  0.00000000  0.87500000  0.50000000	0.000244140625
  0.00000000  0.87500000  0.56250000	0.000244140625
  0.00000000  0.87500000  0.62500000	0.000244140625
  0.00000000  0.87500000  0.68750000	0.000244140625
  0.00000000  0.87500000  0.75000000	0.000244140625
  0.00000000  0.87500000  0.81250000	0.000244140625
  0.00000000  0.87500000  0.87500000	0.000244140625
  0.00000000  0.87500000  0.93750000	0.000244140625
  0.00000000  0.93750000  0.00000000	0.000244140625
  0.00000000  0.93750000  0.06250000	0.000244140625
  0.00000000  0.93750000  0.12500000	0.000244140625
  0.00000000  0.93750000  0.18750000	0.000244140625
  0.00000000  0.93750000  0.25000000	0.000244140625
  0.00000000  0.93750000  0.31250000	0.000244140625
  0.00000000  0.93750000  0.37500000	0.000244140625
  0.00000000  0.93750000  0.43750000	0.000244140625
  0.00000000  0.93750000  0.50000000	0.000244140625
  0.00000000  0.93750000  0.56250000	0.000244140625
  0.00000000  0.93750000  0.62500000	0.000244140625
  0.00000000  0.93750000  0.68750000	0.000244140625
  0.00000000  0.93750000  0.75000000	0.000244140625
  0.00000000  0.93750000  0.81250000	0.000244140625
  0.00000000  0.93750000  0.87500000	0.000244140625
  0.00000000  0.93750000  0.93750000	0.000244140625
  0.06250000  0.00000000  0.00000000	0.000244140625
  0.06250000  0.00000000  0.06250000	0.000244140625
  0.06250000  0.00000000  0.12500000	0.000244140625
  0.06250000  0.00000000  0.18750000	0.000244140625
  0.06250000  0.00000000  0.25000000	0.000244140625
  0.06250000  0.00000000  0.31250000	0.000244140625
  0.06250000  0.00000000  0.37500000	0.000244140625
  0.06250000  0.00000000  0.43750000	0.000244140625
  0.06250000  0.00000000  0.50000000	0.000244140625
  0.06250000  0.00000000  0.56250000	0.000244140625
  0.06250000  0.00000000  0.62500000	0.000244140625
  0.06250000  0.00000000  0.68750000	0.000244140625
  0.06250000  0.00000000  0.75000000	0.000244140625
  0.06250000  0.00000000  0.81250000	0.000244140625
  0.06250000  0.00000000  0.87500000	0.000244140625
  0.06250000  0.00000000  0.93750000	0.000244140625
  0.06250000  0.06250000  0.00000000	0.000244140625
  0.06250000  0.06250000  0.06250000	0.000244140625
  0.06250000  0.06250000  0.12500000	0.000244140625
  0.06250000  0.06250000  0.18750000	0.000244140625
  0.06250000  0.06250000  0.25000000	0.000244140625
  0.06250000  0.06250000  0.31250000	0.000244140625
  0.06250000  0.06250000  0.37500000	0.000244140625
  0.06250000  0.06250000  0.43750000	0.000244140625
  0.06250000  0.06250000  0.50000000	0.000244140625
  0.06250000  0.06250000  0.56250000	0.000244140625
  0.06250000  0.06250000  0.62500000	0.000244140625
  0.06250000  0.06250000  0.68750000	0.000244140625
  0.06250000  0.06250000  0.75000000	0.000244140625
  0.06250000  0.06250000  0.81250000	0.000244140625
  0.06250000  0.06250000  0.87500000	0.000244140625
  0.06250000  0.06250000  0.93750000	0.000244140625
  0.06250000  0.12500000  0.00000000	0.000244140625
  0.06250000  0.12500000  0.06250000	0.000244140625
  0.06250000  0.12500000  0.12500000	0.000244140625
  0.06250000  0.12500000  0.18750000	0.000244140625
  0.06250000  0.12500000  0.25000000	0.000244140625
  0.06250000  0.12500000  0.31250000	0.000244140625
  0.06250000  0.12500000  0.37500000	0.000244140625
  0.06250000  0.12500000  0.43750000	0.000244140625
  0.06250000  0.12500000  0.50000000	0.000244140625
  0.06250000  0.12500000  0.56250000	0.000244140625
  0.06250000  0.12500000  0.62500000	0.000244140625
  0.06250000  0.12500000  0.68750000	0.000244140625
  0.06250000  0.12500000  0.75000000	0.000244140625
  0.06250000  0.12500000  0.81250000	0.000244140625
  0.06250000  0.12500000  0.87500000	0.000244140625
  0.06250000  0.12500000  0.93750000	0.000244140625
  0.06250000  0.18750000  0.00000000	0.000244140625
  0.06250000  0.18750000  0.06250000	0.000244140625
  0.06250000  0.18750000  0.12500000	0.000244140625
  0.06250000  0.18750000  0.18750000	0.000244140625
  0.06250000  0.18750000  0.25000000	0.000244140625
  0.06250000  0.18750000  0.31250000	0.000244140625
  0.06250000  0.18750000  0.37500000	0.000244140625
  0.06250000  0.18750000  0.43750000	0.000244140625
  0.06250000  0.18750000  0.50000000	0.000244140625
  0.06250000  0.18750000  0.56250000	0.000244140625
  0.06250000  0.18750000  0.62500000	0.000244140625
  0.06250000  0.18750000  0.68750000	0.000244140625
  0.06250000  0.18750000  0.75000000	0.000244140625
  0.06250000  0.18750000  0.81250000	0.000244140625
  0.06250000  0.18750000  0.87500000	0.000244140625
  0.06250000  0.18750000  0.93750000	0.000244140625
  0.06250000  0.25000000  0.00000000	0.000244140625
  0.06250000  0.25000000  0.06250000	0.000244140625
  0.06250000  0.25000000  0.12500000	0.000244140625
  0.06250000  0.25000000  0.18750000	0.000244140625
  0.06250000  0.25000000  0.25000000	0.000244140625
  0.06250000  0.25000000  0.31250000	0.000244140625
  0.06250000  0.25000000  0.37500000	0.000244140625
  0.06250000  0.25000000  0.43750000	0.000244140625
  0.06250000  0.25000000  0.50000000	0.000244140625
  0.06250000  0.25000000  0.56250000	0.000244140625
  0.06250000  0.25000000  0.62500000	0.000244140625
  0.06250000  0.25000000  0.68750000	0.000244140625
  0.06250000  0.25000000  0.75000000	0.000244140625
  0.06250000  0.25000000  0.81250000	0.000244140625
  0.06250000  0.25000000  0.87500000	0.000244140625
  0.06250000  0.25000000  0.93750000	0.000244140625
  0.06250000  0.31250000  0.00000000	0.000244140625
  0.06250000  0.31250000  0.06250000	0.000244140625
  0.06250000  0.31250000  0.12500000	0.000244140625
  0.06250000  0.31250000  0.18750000	0.000244140625
  0.06250000  0.31250000  0.25000000	0.000244140625
  0.06250000  0.31250000  0.31250000	0.000244140625
  0.06250000  0.31250000  0.37500000	0.000244140625
  0.06250000  0.31250000  0.43750000	0.000244140625
  0.06250000  0.31250000  0.50000000	0.000244140625
  0.06250000  0.31250000  0.56250000	0.000244140625
  0.06250000  0.31250000  0.62500000	0.000244140625
  0.06250000  0.31250000  0.68750000	0.000244140625
  0.06250000  0.31250000  0.75000000	0.000244140625
  0.06250000  0.31250000  0.81250000	0.000244140625
  0.06250000  0.31250000  0.87500000	0.000244140625
  0.06250000  0.31250000  0.93750000	0.000244140625
  0.06250000  0.37500000  0.00000000	0.000244140625
  0.06250000  0.37500000  0.06250000	0.000244140625
  0.06250000  0.37500000  0.12500000	0.000244140625
  0.06250000  0.37500000  0.18750000	0.000244140625
  0.06250000  0.37500000  0.25000000	0.000244140625
  0.06250000  0.37500000  0.31250000	0.000244140625
  0.06250000  0.37500000  0.37500000	0.000244140625
  0.06250000  0.37500000  0.43750000	0.000244140625
  0.06250000  0.37500000  0.50000000	0.000244140625
  0.06250000  0.37500000  0.56250000	0.000244140625
  0.06250000  0.37500000  0.62500000	0.000244140625
  0.06250000  0.37500000  0.68750000	0.000244140625
  0.06250000  0.37500000  0.75000000	0.000244140625
  0.06250000  0.37500000  0.81250000	0.000244140625
  0.06250000  0.37500000  0.87500000	0.000244140625
  0.06250000  0.37500000  0.93750000	0.000244140625
  0.06250000  0.43750000  0.00000000	0.000244140625
  0.06250000  0.43750000  0.06250000	0.000244140625
  0.06250000  0.43750000  0.12500000	0.000244140625
  0.06250000  0.43750000  0.18750000	0.000244140625
  0.06250000  0.43750000  0.25000000	0.000244140625
  0.06250000  0.43750000  0.31250000	0.000244140625
  0.06250000  0.43750000  0.37500000	0.000244140625
  0.06250000  0.43750000  0.43750000	0.000244140625
  0.06250000  0.43750000  0.50000000	0.000244140625
  0.06250000  0.43750000  0.56250000	0.000244140625
  0.06250000  0.43750000  0.62500000	0.000244140625
  0.06250000  0.43750000  0.68750000	0.000244140625
  0.06250000  0.43750000  0.75000000	0.000244140625
  0.06250000  0.43750000  0.81250000	0.000244140625
  0.06250000  0.43750000  0.87500000	0.000244140625
  0.06250000  0.43750000  0.93750000	0.000244140625
  0.06250000  0.50000000  0.00000000	0.000244140625
  0.06250000  0.50000000  0.06250000	0.000244140625
  0.06250000  0.50000000  0.12500000	0.000244140625
  0.06250000  0.50000000  0.18750000	0.000244140625
  0.06250000  0.50000000  0.25000000	0.000244140625
  0.06250000  0.50000000  0.31250000	0.000244140625
  0.06250000  0.50000000  0.37500000	0.000244140625
  0.06250000  0.50000000  0.43750000	0.000244140625
  0.06250000  0.50000000  0.50000000	0.000244140625
  0.06250000  0.50000000  0.56250000	0.000244140625
  0.06250000  0.50000000  0.62500000	0.000244140625
  0.06250000  0.50000000  0.68750000	0.000244140625
  0.06250000  0.50000000  0.75000000	0.000244140625
  0.06250000  0.50000000  0.81250000	0.000244140625
  0.06250000  0.50000000  0.87500000	0.000244140625
  0.06250000  0.50000000  0.93750000	0.000244140625
  0.06250000  0.56250000  0.00000000	0.000244140625
  0.06250000  0.56250000  0.06250000	0.000244140625
  0.06250000  0.56250000  0.12500000	0.000244140625
  0.06250000  0.56250000  0.18750000	0.000244140625
  0.06250000  0.56250000  0.25000000	0.000244140625
  0.06250000  0.56250000  0.31250000	0.000244140625
  0.06250000  0.56250000  0.37500000	0.000244140625
  0.06250000  0.56250000  0.43750000	0.000244140625
  0.06250000  0.56250000  0.50000000	0.000244140625
  0.06250000  0.56250000  0.56250000	0.000244140625
  0.06250000  0.56250000  0.62500000	0.000244140625
  0.06250000  0.56250000  0.68750000	0.000244140625
  0.06250000  0.56250000  0.75000000	0.000244140625
  0.06250000  0.56250000  0.81250000	0.000244140625
  0.06250000  0.56250000  0.87500000	0.000244140625
  0.06250000  0.56250000  0.93750000	0.000244140625
  0.06250000  0.62500000  0.00000000	0.000244140625
  0.06250000  0.62500000  0.06250000	0.000244140625
  0.06250000  0.62500000  0.12500000	0.000244140625
  0.06250000  0.62500000  0.18750000	0.000244140625
  0.06250000  0.62500000  0.25000000	0.000244140625
  0.06250000  0.62500000  0.31250000	0.000244140625
  0.06250000  0.62500000  0.37500000	0.000244140625
  0.06250000  0.62500000  0.43750000	0.000244140625
  0.06250000  0.62500000  0.50000000	0.000244140625
  0.06250000  0.62500000  0.56250000	0.000244140625
  0.06250000  0.62500000  0.62500000	0.000244140625
  0.06250000  0.62500000  0.68750000	0.000244140625
  0.06250000  0.62500000  0.75000000	0.000244140625
  0.06250000  0.62500000  0.81250000	0.000244140625
  0.06250000  0.62500000  0.87500000	0.000244140625
  0.06250000  0.62500000  0.93750000	0.000244140625
  0.06250000  0.68750000  0.00000000	0.000244140625
  0.06250000  0.68750000  0.06250000	0.000244140625
  0.06250000  0.68750000  0.12500000	0.000244140625
  0.06250000  0.68750000  0.18750000	0.000244140625
  0.06250000  0.68750000  0.25000000	0.000244140625
  0.06250000  0.68750000  0.31250000	0.000244140625
  0.06250000  0.68750000  0.37500000	0.000244140625
  0.06250000  0.68750000  0.43750000	0.000244140625
  0.06250000  0.68750000  0.50000000	0.000244140625
  0.06250000  0.68750000  0.56250000	0.000244140625
  0.06250000  0.68750000  0.62500000	0.000244140625
  0.06250000  0.68750000  0.68750000	0.000244140625
  0.06250000  0.68750000  0.75000000	0.000244140625
  0.06250000  0.68750000  0.81250000	0.000244140625
  0.06250000  0.68750000  0.87500000	0.000244140625
  0.06250000  0.68750000  0.93750000	0.000244140625
  0.06250000  0.75000000  0.00000000	0.000244140625
  0.06250000  0.75000000  0.06250000	0.000244140625
  0.06250000  0.75000000  0.12500000	0.000244140625
  0.06250000  0.75000000  0.18750000	0.000244140625
  0.06250000  0.75000000  0.25000000	0.000244140625
  0.06250000  0.75000000  0.31250000	0.000244140625
  0.06250000  0.75000000  0.37500000	0.000244140625
  0.06250000  0.75000000  0.43750000	0.000244140625
  0.06250000  0.75000000  0.50000000	0.000244140625
  0.06250000  0.75000000  0.56250000	0.000244140625
  0.06250000  0.75000000  0.62500000	0.000244140625
  0.06250000  0.75000000  0.68750000	0.000244140625
  0.06250000  0.75000000  0.75000000	0.000244140625
  0.06250000  0.75000000  0.81250000	0.000244140625
  0.06250000  0.75000000  0.87500000	0.000244140625
  0.06250000  0.75000000  0.93750000	0.000244140625
  0.06250000  0.81250000  0.00000000	0.000244140625
  0.06250000  0.81250000  0.06250000	0.000244140625
  0.06250000  0.81250000  0.12500000	0.000244140625
  0.06250000  0.81250000  0.18750000	0.000244140625
  0.06250000  0.81250000  0.25000000	0.000244140625
  0.06250000  0.81250000  0.31250000	0.000244140625
  0.06250000  0.81250000  0.37500000	0.000244140625
  0.06250000  0.81250000  0.43750000	0.000244140625
  0.06250000  0.81250000  0.50000000	0.000244140625
  0.06250000  0.81250000  0.56250000	0.000244140625
  0.06250000  0.81250000  0.62500000	0.000244140625
  0.06250000  0.81250000  0.68750000	0.000244140625
  0.06250000  0.81250000  0.75000000	0.000244140625
  0.06250000  0.81250000  0.81250000	0.000244140625
  0.06250000  0.81250000  0.87500000	0.000244140625
  0.06250000  0.81250000  0.93750000	0.000244140625
  0.06250000  0.87500000  0.00000000	0.000244140625
  0.06250000  0.87500000  0.06250000	0.000244140625
  0.06250000  0.87500000  0.12500000	0.000244140625
  0.06250000  0.87500000  0.18750000	0.000244140625
  0.06250000  0.87500000  0.25000000	0.000244140625
  0.06250000  0.87500000  0.31250000	0.000244140625
  0.06250000  0.87500000  0.37500000	0.000244140625
  0.06250000  0.87500000  0.43750000	0.000244140625
  0.06250000  0.87500000  0.50000000	0.000244140625
  0.06250000  0.87500000  0.56250000	0.000244140625
  0.06250000  0.87500000  0.62500000	0.000244140625
  0.06250000  0.87500000  0.68750000	0.000244140625
  0.06250000  0.87500000  0.75000000	0.000244140625
  0.06250000  0.87500000  0.81250000	0.000244140625
  0.06250000  0.87500000  0.87500000	0.000244140625
  0.06250000  0.87500000  0.93750000	0.000244140625
  0.06250000  0.93750000  0.00000000	0.000244140625
  0.06250000  0.93750000  0.06250000	0.000244140625
  0.06250000  0.93750000  0.12500000	0.000244140625
  0.06250000  0.93750000  0.18750000	0.000244140625
  0.06250000  0.93750000  0.25000000	0.000244140625
  0.06250000  0.93750000  0.31250000	0.000244140625
  0.06250000  0.93750000  0.37500000	0.000244140625
  0.06250000  0.93750000  0.43750000	0.000244140625
  0.06250000  0.93750000  0.50000000	0.000244140625
  0.06250000  0.93750000  0.56250000	0.000244140625
  0.06250000  0.93750000  0.62500000	0.000244140625
  0.06250000  0.93750000  0.68750000	0.000244140625
  0.06250000  0.93750000  0.75000000	0.000244140625
  0.06250000  0.93750000  0.81250000	0.000244140625
  0.06250000  0.93750000  0.87500000	0.000244140625