&CONTROL
  calculation    = 'nscf'
  outdir         = './tmp'
  prefix         = 'BaPbO3'
  pseudo_dir     = './pseudo/'
  verbosity      = 'high'
/

&SYSTEM
  degauss        = 7.3498618e-03
  ecutrho        = 6.0e+02
  ecutwfc        = 7.5e+01
  ibrav          = 0
  nat            = 5
  ntyp           = 3
  occupations    = 'smearing'
  smearing       = 'cold'
  lspinorb       = .true.
  noncolin       = .true.
  nbnd           = 54
/

&ELECTRONS
  conv_thr       = 1.e-10
  mixing_beta    = 0.1
/

ATOMIC_SPECIES
  Ba  137.327  Ba.rel-pbe-spn-rrkjus_psl.1.0.0.UPF
  Pb  207.2    Pb.rel-pbe-dn-rrkjus_psl.1.0.0.UPF
  O   15.9994  O.rel-pbe-n-rrkjus_psl.1.0.0.UPF


ATOMIC_POSITIONS crystal
  Ba  0.5000000000  0.5000000000  0.5000000000
  Pb  0.0000000000  0.0000000000  0.0000000000
  O   0.5000000000  0.0000000000  0.0000000000
  O   0.0000000000  0.5000000000  0.0000000000
  O   0.0000000000  0.0000000000  0.5000000000

CELL_PARAMETERS angstrom
   4.360222678   0.000000000   0.000000000
   0.000000000   4.360222678   0.000000000
   0.000000000   0.000000000   4.360222678

K_POINTS crystal_b
4096
  0.00000000  0.00000000  0.00000000	0.000244140625
  0.00000000  0.00000000  0.06250000	0.000244140625
  0.00000000  0.00000000  0.12500000	0.000244140625
  0.00000000  0.00000000  0.18750000	0.000244140625
  0.00000000  0.00000000  0.25000000	0.000244140625
  0.00000000  0.00000000  0.31250000	0.000244140625
  0.00000000  0.00000000  0.37500000	0.000244140625
  0.00000000  0.00000000  0.43750000	0.000244140625
  0.00000000  0.00000000  0.50000000	0.000244140625
  0.00000000  0.00000000  0.56250000	0.000244140625
  0.00000000  0.00000000  0.62500000	0.000244140625
  0.00000000  0.00000000  0.68750000	0.000244140625
  0.00000000  0.00000000  0.75000000	0.000244140625
  0.00000000  0.00000000  0.81250000	0.000244140625
  0.00000000  0.00000000  0.87500000	0.000244140625
  0.00000000  0.00000000  0.93750000	0.000244140625
  0.00000000  0.06250000  0.00000000	0.000244140625
  0.00000000  0.06250000  0.06250000	0.000244140625
  0.00000000  0.06250000  0.12500000	0.000244140625
  0.00000000  0.06250000  0.18750000	0.000244140625
  0.00000000  0.06250000  0.25000000	0.000244140625
  0.00000000  0.06250000  0.31250000	0.000244140625
  0.00000000  0.06250000  0.37500000	0.000244140625
  0.00000000  0.06250000  0.43750000	0.000244140625
  0.00000000  0.06250000  0.50000000	0.000244140625
  0.00000000  0.06250000  0.56250000	0.000244140625
  0.00000000  0.06250000  0.62500000	0.000244140625
  0.00000000  0.06250000  0.68750000	0.000244140625
  0.00000000  0.06250000  0.75000000	0.000244140625
  0.00000000  0.06250000  0.81250000	0.000244140625
  0.00000000  0.06250000  0.87500000	0.000244140625
  0.00000000  0.06250000  0.93750000	0.000244140625
  0.00000000  0.12500000  0.00000000	0.000244140625
  0.00000000  0.12500000  0.06250000	0.000244140625
  0.00000000  0.12500000  0.12500000	0.000244140625
  0.00000000  0.12500000  0.18750000	0.000244140625
  0.00000000  0.12500000  0.25000000	0.000244140625
  0.00000000  0.12500000  0.31250000	0.000244140625
  0.00000000  0.12500000  0.37500000	0.000244140625
  0.00000000  0.12500000  0.43750000	0.000244140625
  0.00000000  0.12500000  0.50000000	0.000244140625
  0.00000000  0.12500000  0.56250000	0.000244140625
  0.00000000  0.12500000  0.62500000	0.000244140625
  0.00000000  0.12500000  0.68750000	0.000244140625
  0.00000000  0.12500000  0.75000000	0.000244140625
  0.00000000  0.12500000  0.81250000	0.000244140625
  0.00000000  0.12500000  0.87500000	0.000244140625
  0.00000000  0.12500000  0.93750000	0.000244140625
  0.00000000  0.18750000  0.00000000	0.000244140625
  0.00000000  0.18750000  0.06250000	0.000244140625
  0.00000000  0.18750000  0.12500000	0.000244140625
  0.00000000  0.18750000  0.18750000	0.000244140625
  0.00000000  0.18750000  0.25000000	0.000244140625
  0.00000000  0.18750000  0.31250000	0.000244140625
  0.00000000  0.18750000  0.37500000	0.000244140625
  0.00000000  0.18750000  0.43750000	0.000244140625
  0.00000000  0.18750000  0.50000000	0.000244140625
  0.00000000  0.18750000  0.56250000	0.000244140625
  0.00000000  0.18750000  0.62500000	0.000244140625
  0.00000000  0.18750000  0.68750000	0.000244140625
  0.00000000  0.18750000  0.75000000	0.000244140625
  0.00000000  0.18750000  0.81250000	0.000244140625
  0.00000000  0.18750000  0.87500000	0.000244140625
  0.00000000  0.18750000  0.93750000	0.000244140625
  0.00000000  0.25000000  0.00000000	0.000244140625
  0.00000000  0.25000000  0.06250000	0.000244140625
  0.00000000  0.25000000  0.12500000	0.000244140625
  0.00000000  0.25000000  0.18750000	0.000244140625
  0.00000000  0.25000000  0.25000000	0.000244140625
  0.00000000  0.25000000  0.31250000	0.000244140625
  0.00000000  0.25000000  0.37500000	0.000244140625
  0.00000000  0.25000000  0.43750000	0.000244140625
  0.00000000  0.25000000  0.50000000	0.000244140625
  0.00000000  0.25000000  0.56250000	0.000244140625
  0.00000000  0.25000000  0.62500000	0.000244140625
  0.00000000  0.25000000  0.68750000	0.000244140625
  0.00000000  0.25000000  0.75000000	0.000244140625
  0.00000000  0.25000000  0.81250000	0.000244140625
  0.00000000  0.25000000  0.87500000	0.000244140625
  0.00000000  0.25000000  0.93750000	0.000244140625
  0.00000000  0.31250000  0.00000000	0.000244140625
  0.00000000  0.31250000  0.06250000	0.000244140625
  0.00000000  0.31250000  0.12500000	0.000244140625
  0.00000000  0.31250000  0.18750000	0.000244140625
  0.00000000  0.31250000  0.25000000	0.000244140625
  0.00000000  0.31250000  0.31250000	0.000244140625
  0.00000000  0.31250000  0.37500000	0.000244140625
  0.00000000  0.31250000  0.43750000	0.000244140625
  0.00000000  0.31250000  0.50000000	0.000244140625
  0.00000000  0.31250000  0.56250000	0.000244140625
  0.00000000  0.31250000  0.62500000	0.000244140625
  0.00000000  0.31250000  0.68750000	0.000244140625
  0.00000000  0.31250000  0.75000000	0.000244140625
  0.00000000  0.31250000  0.81250000	0.000244140625
  0.00000000  0.31250000  0.87500000	0.000244140625
  0.00000000  0.31250000  0.93750000	0.000244140625
  0.00000000  0.37500000  0.00000000	0.000244140625
  0.00000000  0.37500000  0.06250000	0.000244140625
  0.00000000  0.37500000  0.12500000	0.000244140625
  0.00000000  0.37500000  0.18750000	0.000244140625
  0.00000000  0.37500000  0.25000000	0.000244140625
  0.00000000  0.37500000  0.31250000	0.000244140625
  0.00000000  0.37500000  0.37500000	0.000244140625
  0.00000000  0.37500000  0.43750000	0.000244140625
  0.00000000  0.37500000  0.50000000	0.000244140625
  0.00000000  0.37500000  0.56250000	0.000244140625
  0.00000000  0.37500000  0.62500000	0.000244140625
  0.00000000  0.37500000  0.68750000	0.000244140625
  0.00000000  0.37500000  0.75000000	0.000244140625
  0.00000000  0.37500000  0.81250000	0.000244140625
  0.00000000  0.37500000  0.87500000	0.000244140625
  0.00000000  0.37500000  0.93750000	0.000244140625
  0.00000000  0.43750000  0.00000000	0.000244140625
  0.00000000  0.43750000  0.06250000	0.000244140625
  0.00000000  0.43750000  0.12500000	0.000244140625
  0.00000000  0.43750000  0.18750000	0.000244140625
  0.00000000  0.43750000  0.25000000	0.000244140625
  0.00000000  0.43750000  0.31250000	0.000244140625
  0.00000000  0.43750000  0.37500000	0.000244140625
  0.00000000  0.43750000  0.43750000	0.000244140625
  0.00000000  0.43750000  0.50000000	0.000244140625
  0.00000000  0.43750000  0.56250000	0.000244140625
  0.00000000  0.43750000  0.62500000	0.000244140625
  0.00000000  0.43750000  0.68750000	0.000244140625
  0.00000000  0.43750000  0.75000000	0.000244140625
  0.00000000  0.43750000  0.81250000	0.000244140625
  0.00000000  0.43750000  0.87500000	0.000244140625
  0.00000000  0.43750000  0.93750000	0.000244140625
  0.00000000  0.50000000  0.00000000	0.000244140625
  0.00000000  0.50000000  0.06250000	0.000244140625
  0.00000000  0.50000000  0.12500000	0.000244140625
  0.00000000  0.50000000  0.18750000	0.000244140625
  0.00000000  0.50000000  0.25000000	0.000244140625
  0.00000000  0.50000000  0.31250000	0.000244140625
  0.00000000  0.50000000  0.37500000	0.000244140625
  0.00000000  0.50000000  0.43750000	0.000244140625
  0.00000000  0.50000000  0.50000000	0.000244140625
  0.00000000  0.50000000  0.56250000	0.000244140625
  0.00000000  0.50000000  0.62500000	0.000244140625
  0.00000000  0.50000000  0.68750000	0.000244140625
  0.00000000  0.50000000  0.75000000	0.000244140625
  0.00000000  0.50000000  0.81250000	0.000244140625
  0.00000000  0.50000000  0.87500000	0.000244140625
  0.00000000  0.50000000  0.93750000	0.000244140625
  0.00000000  0.56250000  0.00000000	0.000244140625
  0.00000000  0.56250000  0.06250000	0.000244140625
  0.00000000  0.56250000  0.12500000	0.000244140625
  0.00000000  0.56250000  0.18750000	0.000244140625
  0.00000000  0.56250000  0.25000000	0.000244140625
  0.00000000  0.56250000  0.31250000	0.000244140625
  0.00000000  0.56250000  0.37500000	0.000244140625
  0.00000000  0.56250000  0.43750000	0.000244140625
  0.00000000  0.56250000  0.50000000	0.000244140625
  0.00000000  0.56250000  0.56250000	0.000244140625
  0.00000000  0.56250000  0.62500000	0.000244140625
  0.00000000  0.56250000  0.68750000	0.000244140625
  0.00000000  0.56250000  0.75000000	0.000244140625
  0.00000000  0.56250000  0.81250000	0.000244140625
  0.00000000  0.56250000  0.87500000	0.000244140625
  0.00000000  0.56250000  0.93750000	0.000244140625
  0.00000000  0.62500000  0.00000000	0.000244140625
  0.00000000  0.62500000  0.06250000	0.000244140625
  0.00000000  0.62500000  0.12500000	0.000244140625
  0.00000000  0.62500000  0.18750000	0.000244140625
  0.00000000  0.62500000  0.25000000	0.000244140625
  0.00000000  0.62500000  0.31250000	0.000244140625
  0.00000000  0.62500000  0.37500000	0.000244140625
  0.00000000  0.62500000  0.43750000	0.000244140625
  0.00000000  0.62500000  0.50000000	0.000244140625
  0.00000000  0.62500000  0.56250000	0.000244140625
  0.00000000  0.62500000  0.62500000	0.000244140625
  0.00000000  0.62500000  0.68750000	0.000244140625
  0.00000000  0.62500000  0.75000000	0.000244140625
  0.00000000  0.62500000  0.81250000	0.000244140625
  0.00000000  0.62500000  0.87500000	0.000244140625
  0.00000000  0.62500000  0.93750000	0.000244140625
  0.00000000  0.68750000  0.00000000	0.000244140625
  0.00000000  0.68750000  0.06250000	0.000244140625
  0.00000000  0.68750000  0.12500000	0.000244140625
  0.00000000  0.68750000  0.18750000	0.000244140625
  0.00000000  0.68750000  0.25000000	0.000244140625
  0.00000000  0.68750000  0.31250000	0.000244140625
  0.00000000  0.68750000  0.37500000	0.000244140625
  0.00000000  0.68750000  0.43750000	0.000244140625
  0.00000000  0.68750000  0.50000000	0.000244140625
  0.00000000  0.68750000  0.56250000	0.000244140625
  0.00000000  0.68750000  0.62500000	0.000244140625
  0.00000000  0.68750000  0.68750000	0.000244140625
  0.00000000  0.68750000  0.75000000	0.000244140625
  0.00000000  0.68750000  0.81250000	0.000244140625
  0.00000000  0.68750000  0.87500000	0.000244140625
  0.00000000  0.68750000  0.93750000	0.000244140625
  0.00000000  0.75000000  0.00000000	0.000244140625
  0.00000000  0.75000000  0.06250000	0.000244140625
  0.00000000  0.75000000  0.12500000	0.000244140625
  0.00000000  0.75000000  0.18750000	0.000244140625
  0.00000000  0.75000000  0.25000000	0.000244140625
  0.00000000  0.75000000  0.31250000	0.000244140625
  0.00000000  0.75000000  0.37500000	0.000244140625
  0.00000000  0.75000000  0.43750000	0.000244140625
  0.00000000  0.75000000  0.50000000	0.000244140625
  0.00000000  0.75000000  0.56250000	0.000244140625
  0.00000000  0.75000000  0.62500000	0.000244140625
  0.00000000  0.75000000  0.68750000	0.000244140625
  0.00000000  0.75000000  0.75000000	0.000244140625
  0.00000000  0.75000000  0.81250000	0.000244140625
  0.00000000  0.75000000  0.87500000	0.000244140625
  0.00000000  0.75000000  0.93750000	0.000244140625
  0.00000000  0.81250000  0.00000000	0.000244140625
  0.00000000  0.81250000  0.06250000	0.000244140625
  0.00000000  0.81250000  0.12500000	0.000244140625
  0.00000000  0.81250000  0.18750000	0.000244140625
  0.00000000  0.81250000  0.25000000	0.000244140625
  0.00000000  0.81250000  0.31250000	0.000244140625
  0.00000000  0.81250000  0.37500000	0.000244140625
  0.00000000  0.81250000  0.43750000	0.000244140625
  0.00000000  0.81250000  0.50000000	0.000244140625
  0.00000000  0.81250000  0.56250000	0.000244140625
  0.00000000  0.81250000  0.62500000	0.000244140625
  0.00000000  0.81250000  0.68750000	0.000244140625
  0.00000000  0.81250000  0.75000000	0.000244140625
  0.00000000  0.81250000  0.81250000	0.000244140625
  0.00000000  0.81250000  0.87500000	0.000244140625
  0.00000000  0.81250000  0.93750000	0.000244140625
  0.00000000  0.87500000  0.00000000	0.000244140625
  0.00000000  0.87500000  0.06250000	0.000244140625
  0.00000000  0.87500000  0.12500000	0.000244140625
  0.00000000  0.87500000  0.18750000	0.000244140625
  0.00000000  0.87500000  0.25000000	0.000244140625
  0.00000000  0.87500000  0.31250000	0.000244140625
  0.00000000  0.87500000  0.37500000	0.000244140625
  0.00000000  0.87500000  0.43750000	0.000244140625
  0.00000000  0.87500000  0.50000000	0.000244140625
  0.00000000  0.87500000  0.56250000	0.000244140625
  0.00000000  0.87500000  0.62500000	0.000244140625
  0.00000000  0.87500000  0.68750000	0.000244140625
  0.00000000  0.87500000  0.75000000	0.000244140625
  0.00000000  0.87500000  0.81250000	0.000244140625
  0.00000000  0.87500000  0.87500000	0.000244140625
  0.00000000  0.87500000  0.93750000	0.000244140625
  0.00000000  0.93750000  0.00000000	0.000244140625
  0.00000000  0.93750000  0.06250000	0.000244140625
  0.00000000  0.93750000  0.12500000	0.000244140625
  0.00000000  0.93750000  0.18750000	0.000244140625
  0.00000000  0.93750000  0.25000000	0.000244140625
  0.00000000  0.93750000  0.31250000	0.000244140625
  0.00000000  0.93750000  0.37500000	0.000244140625
  0.00000000  0.93750000  0.43750000	0.000244140625
  0.00000000  0.93750000  0.50000000	0.000244140625
  0.00000000  0.93750000  0.56250000	0.000244140625
  0.00000000  0.93750000  0.62500000	0.000244140625
  0.00000000  0.93750000  0.68750000	0.000244140625
  0.00000000  0.93750000  0.75000000	0.000244140625
  0.00000000  0.93750000  0.81250000	0.000244140625
  0.00000000  0.93750000  0.87500000	0.000244140625
  0.00000000  0.93750000  0.93750000	0.000244140625
  0.06250000  0.00000000  0.00000000	0.000244140625
  0.06250000  0.00000000  0.06250000	0.000244140625
  0.06250000  0.00000000  0.12500000	0.000244140625
  0.06250000  0.00000000  0.18750000	0.000244140625
  0.06250000  0.00000000  0.25000000	0.000244140625
  0.06250000  0.00000000  0.31250000	0.000244140625
  0.06250000  0.00000000  0.37500000	0.000244140625
  0.06250000  0.00000000  0.43750000	0.000244140625
  0.06250000  0.00000000  0.50000000	0.000244140625
  0.06250000  0.00000000  0.56250000	0.000244140625
  0.06250000  0.00000000  0.62500000	0.000244140625
  0.06250000  0.00000000  0.68750000	0.000244140625
  0.06250000  0.00000000  0.75000000	0.000244140625
  0.06250000  0.00000000  0.81250000	0.000244140625
  0.06250000  0.00000000  0.87500000	0.000244140625
  0.06250000  0.00000000  0.93750000	0.000244140625
  0.06250000  0.06250000  0.00000000	0.000244140625
  0.06250000  0.06250000  0.06250000	0.000244140625
  0.06250000  0.06250000  0.12500000	0.000244140625
  0.06250000  0.06250000  0.18750000	0.000244140625
  0.06250000  0.06250000  0.25000000	0.000244140625
  0.06250000  0.06250000  0.31250000	0.000244140625
  0.06250000  0.06250000  0.37500000	0.000244140625
  0.06250000  0.06250000  0.43750000	0.000244140625
  0.06250000  0.06250000  0.50000000	0.000244140625
  0.06250000  0.06250000  0.56250000	0.000244140625
  0.06250000  0.06250000  0.62500000	0.000244140625
  0.06250000  0.06250000  0.68750000	0.000244140625
  0.06250000  0.06250000  0.75000000	0.000244140625
  0.06250000  0.06250000  0.81250000	0.000244140625
  0.06250000  0.06250000  0.87500000	0.000244140625
  0.06250000  0.06250000  0.93750000	0.000244140625
  0.06250000  0.12500000  0.00000000	0.000244140625
  0.06250000  0.12500000  0.06250000	0.000244140625
  0.06250000  0.12500000  0.12500000	0.000244140625
  0.06250000  0.12500000  0.18750000	0.000244140625
  0.06250000  0.12500000  0.25000000	0.000244140625
  0.06250000  0.12500000  0.31250000	0.000244140625
  0.06250000  0.12500000  0.37500000	0.000244140625
  0.06250000  0.12500000  0.43750000	0.000244140625
  0.06250000  0.12500000  0.50000000	0.000244140625
  0.06250000  0.12500000  0.56250000	0.000244140625
  0.06250000  0.12500000  0.62500000	0.000244140625
  0.06250000  0.12500000  0.68750000	0.000244140625
  0.06250000  0.12500000  0.75000000	0.000244140625
  0.06250000  0.12500000  0.81250000	0.000244140625
  0.06250000  0.12500000  0.87500000	0.000244140625
  0.06250000  0.12500000  0.93750000	0.000244140625
  0.06250000  0.18750000  0.00000000	0.000244140625
  0.06250000  0.18750000  0.06250000	0.000244140625
  0.06250000  0.18750000  0.12500000	0.000244140625
  0.06250000  0.18750000  0.18750000	0.000244140625
  0.06250000  0.18750000  0.25000000	0.000244140625
  0.06250000  0.18750000  0.31250000	0.000244140625
  0.06250000  0.18750000  0.37500000	0.000244140625
  0.06250000  0.18750000  0.43750000	0.000244140625
  0.06250000  0.18750000  0.50000000	0.000244140625
  0.06250000  0.18750000  0.56250000	0.000244140625
  0.06250000  0.18750000  0.62500000	0.000244140625
  0.06250000  0.18750000  0.68750000	0.000244140625
  0.06250000  0.18750000  0.75000000	0.000244140625
  0.06250000  0.18750000  0.81250000	0.000244140625
  0.06250000  0.18750000  0.87500000	0.000244140625
  0.06250000  0.18750000  0.93750000	0.000244140625
  0.06250000  0.25000000  0.00000000	0.000244140625
  0.06250000  0.25000000  0.06250000	0.000244140625
  0.06250000  0.25000000  0.12500000	0.000244140625
  0.06250000  0.25000000  0.18750000	0.000244140625
  0.06250000  0.25000000  0.25000000	0.000244140625
  0.06250000  0.25000000  0.31250000	0.000244140625
  0.06250000  0.25000000  0.37500000	0.000244140625
  0.06250000  0.25000000  0.43750000	0.000244140625
  0.06250000  0.25000000  0.50000000	0.000244140625
  0.06250000  0.25000000  0.56250000	0.000244140625
  0.06250000  0.25000000  0.62500000	0.000244140625
  0.06250000  0.25000000  0.68750000	0.000244140625
  0.06250000  0.25000000  0.75000000	0.000244140625
  0.06250000  0.25000000  0.81250000	0.000244140625
  0.06250000  0.25000000  0.87500000	0.000244140625
  0.06250000  0.25000000  0.93750000	0.000244140625
  0.06250000  0.31250000  0.00000000	0.000244140625
  0.06250000  0.31250000  0.06250000	0.000244140625
  0.06250000  0.31250000  0.12500000	0.000244140625
  0.06250000  0.31250000  0.18750000	0.000244140625
  0.06250000  0.31250000  0.25000000	0.000244140625
  0.06250000  0.31250000  0.31250000	0.000244140625
  0.06250000  0.31250000  0.37500000	0.000244140625
  0.06250000  0.31250000  0.43750000	0.000244140625
  0.06250000  0.31250000  0.50000000	0.000244140625
  0.06250000  0.31250000  0.56250000	0.000244140625
  0.06250000  0.31250000  0.62500000	0.000244140625
  0.06250000  0.31250000  0.68750000	0.000244140625
  0.06250000  0.31250000  0.75000000	0.000244140625
  0.06250000  0.31250000  0.81250000	0.000244140625
  0.06250000  0.31250000  0.87500000	0.000244140625
  0.06250000  0.31250000  0.93750000	0.000244140625
  0.06250000  0.37500000  0.00000000	0.000244140625
  0.06250000  0.37500000  0.06250000	0.000244140625
  0.06250000  0.37500000  0.12500000	0.000244140625
  0.06250000  0.37500000  0.18750000	0.000244140625
  0.06250000  0.37500000  0.25000000	0.000244140625
  0.06250000  0.37500000  0.31250000	0.000244140625
  0.06250000  0.37500000  0.37500000	0.000244140625
  0.06250000  0.37500000  0.43750000	0.000244140625
  0.06250000  0.37500000  0.50000000	0.000244140625
  0.06250000  0.37500000  0.56250000	0.000244140625
  0.06250000  0.37500000  0.62500000	0.000244140625
  0.06250000  0.37500000  0.68750000	0.000244140625
  0.06250000  0.37500000  0.75000000	0.000244140625
  0.06250000  0.37500000  0.81250000	0.000244140625
  0.06250000  0.37500000  0.87500000	0.000244140625
  0.06250000  0.37500000  0.93750000	0.000244140625
  0.06250000  0.43750000  0.00000000	0.000244140625
  0.06250000  0.43750000  0.06250000	0.000244140625
  0.06250000  0.43750000  0.12500000	0.000244140625
  0.06250000  0.43750000  0.18750000	0.000244140625
  0.06250000  0.43750000  0.25000000	0.000244140625
  0.06250000  0.43750000  0.31250000	0.000244140625
  0.06250000  0.43750000  0.37500000	0.000244140625
  0.06250000  0.43750000  0.43750000	0.000244140625
  0.06250000  0.43750000  0.50000000	0.000244140625
  0.06250000  0.43750000  0.56250000	0.000244140625
  0.06250000  0.43750000  0.62500000	0.000244140625
  0.06250000  0.43750000  0.68750000	0.000244140625
  0.06250000  0.43750000  0.75000000	0.000244140625
  0.06250000  0.43750000  0.81250000	0.000244140625
  0.06250000  0.43750000  0.87500000	0.000244140625
  0.06250000  0.43750000  0.93750000	0.000244140625
  0.06250000  0.50000000  0.00000000	0.000244140625
  0.06250000  0.50000000  0.06250000	0.000244140625
  0.06250000  0.50000000  0.12500000	0.000244140625
  0.06250000  0.50000000  0.18750000	0.000244140625
  0.06250000  0.50000000  0.25000000	0.000244140625
  0.06250000  0.50000000  0.31250000	0.000244140625
  0.06250000  0.50000000  0.37500000	0.000244140625
  0.06250000  0.50000000  0.43750000	0.000244140625
  0.06250000  0.50000000  0.50000000	0.000244140625
  0.06250000  0.50000000  0.56250000	0.000244140625
  0.06250000  0.50000000  0.62500000	0.000244140625
  0.06250000  0.50000000  0.68750000	0.000244140625
  0.06250000  0.50000000  0.75000000	0.000244140625
  0.06250000  0.50000000  0.81250000	0.000244140625
  0.06250000  0.50000000  0.87500000	0.000244140625
  0.06250000  0.50000000  0.93750000	0.000244140625
  0.06250000  0.56250000  0.00000000	0.000244140625
  0.06250000  0.56250000  0.06250000	0.000244140625
  0.06250000  0.56250000  0.12500000	0.000244140625
  0.06250000  0.56250000  0.18750000	0.000244140625
  0.06250000  0.56250000  0.25000000	0.000244140625
  0.06250000  0.56250000  0.31250000	0.000244140625
  0.06250000  0.56250000  0.37500000	0.000244140625
  0.06250000  0.56250000  0.43750000	0.000244140625
  0.06250000  0.56250000  0.50000000	0.000244140625
  0.06250000  0.56250000  0.56250000	0.000244140625
  0.06250000  0.56250000  0.62500000	0.000244140625
  0.06250000  0.56250000  0.68750000	0.000244140625
  0.06250000  0.56250000  0.75000000	0.000244140625
  0.06250000  0.56250000  0.81250000	0.000244140625
  0.06250000  0.56250000  0.87500000	0.000244140625
  0.06250000  0.56250000  0.93750000	0.000244140625
  0.06250000  0.62500000  0.00000000	0.000244140625
  0.06250000  0.62500000  0.06250000	0.000244140625
  0.06250000  0.62500000  0.12500000	0.000244140625
  0.06250000  0.62500000  0.18750000	0.000244140625
  0.06250000  0.62500000  0.25000000	0.000244140625
  0.06250000  0.62500000  0.31250000	0.000244140625
  0.06250000  0.62500000  0.37500000	0.000244140625
  0.06250000  0.62500000  0.43750000	0.000244140625
  0.06250000  0.62500000  0.50000000	0.000244140625
  0.06250000  0.62500000  0.56250000	0.000244140625
  0.06250000  0.62500000  0.62500000	0.000244140625
  0.06250000  0.62500000  0.68750000	0.000244140625
  0.06250000  0.62500000  0.75000000	0.000244140625
  0.06250000  0.62500000  0.81250000	0.000244140625
  0.06250000  0.62500000  0.87500000	0.000244140625
  0.06250000  0.62500000  0.93750000	0.000244140625
  0.06250000  0.68750000  0.00000000	0.000244140625
  0.06250000  0.68750000  0.06250000	0.000244140625
  0.06250000  0.68750000  0.12500000	0.000244140625
  0.06250000  0.68750000  0.18750000	0.000244140625
  0.06250000  0.68750000  0.25000000	0.000244140625
  0.06250000  0.68750000  0.31250000	0.000244140625
  0.06250000  0.68750000  0.37500000	0.000244140625
  0.06250000  0.68750000  0.43750000	0.000244140625
  0.06250000  0.68750000  0.50000000	0.000244140625
  0.06250000  0.68750000  0.56250000	0.000244140625
  0.06250000  0.68750000  0.62500000	0.000244140625
  0.06250000  0.68750000  0.68750000	0.000244140625
  0.06250000  0.68750000  0.75000000	0.000244140625
  0.06250000  0.68750000  0.81250000	0.000244140625
  0.06250000  0.68750000  0.87500000	0.000244140625
  0.06250000  0.68750000  0.93750000	0.000244140625
  0.06250000  0.75000000  0.00000000	0.000244140625
  0.06250000  0.75000000  0.06250000	0.000244140625
  0.06250000  0.75000000  0.12500000	0.000244140625
  0.06250000  0.75000000  0.18750000	0.000244140625
  0.06250000  0.75000000  0.25000000	0.000244140625
  0.06250000  0.75000000  0.31250000	0.000244140625
  0.06250000  0.75000000  0.37500000	0.000244140625
  0.06250000  0.75000000  0.43750000	0.000244140625
  0.06250000  0.75000000  0.50000000	0.000244140625
  0.06250000  0.75000000  0.56250000	0.000244140625
  0.06250000  0.75000000  0.62500000	0.000244140625
  0.06250000  0.75000000  0.68750000	0.000244140625
  0.06250000  0.75000000  0.75000000	0.000244140625
  0.06250000  0.75000000  0.81250000	0.000244140625
  0.06250000  0.75000000  0.87500000	0.000244140625
  0.06250000  0.75000000  0.93750000	0.000244140625
  0.06250000  0.81250000  0.00000000	0.000244140625
  0.06250000  0.81250000  0.06250000	0.000244140625
  0.06250000  0.81250000  0.12500000	0.000244140625
  0.06250000  0.81250000  0.18750000	0.000244140625
  0.06250000  0.81250000  0.25000000	0.000244140625
  0.06250000  0.81250000  0.31250000	0.000244140625
  0.06250000  0.81250000  0.37500000	0.000244140625
  0.06250000  0.81250000  0.43750000	0.000244140625
  0.06250000  0.81250000  0.50000000	0.000244140625
  0.06250000  0.81250000  0.56250000	0.000244140625
  0.06250000  0.81250000  0.62500000	0.000244140625
  0.06250000  0.81250000  0.68750000	0.000244140625
  0.06250000  0.81250000  0.75000000	0.000244140625
  0.06250000  0.81250000  0.81250000	0.000244140625
  0.06250000  0.81250000  0.87500000	0.000244140625
  0.06250000  0.81250000  0.93750000	0.000244140625
  0.06250000  0.87500000  0.00000000	0.000244140625
  0.06250000  0.87500000  0.06250000	0.000244140625
  0.06250000  0.87500000  0.12500000	0.000244140625
  0.06250000  0.87500000  0.18750000	0.000244140625
  0.06250000  0.87500000  0.25000000	0.000244140625
  0.06250000  0.87500000  0.31250000	0.000244140625
  0.06250000  0.87500000  0.37500000	0.000244140625
  0.06250000  0.87500000  0.43750000	0.000244140625
  0.06250000  0.87500000  0.50000000	0.000244140625
  0.06250000  0.87500000  0.56250000	0.000244140625
  0.06250000  0.87500000  0.62500000	0.000244140625
  0.06250000  0.87500000  0.68750000	0.000244140625
  0.06250000  0.87500000  0.75000000	0.000244140625
  0.06250000  0.87500000  0.81250000	0.000244140625
  0.06250000  0.87500000  0.87500000	0.000244140625
  0.06250000  0.87500000  0.93750000	0.000244140625
  0.06250000  0.93750000  0.00000000	0.000244140625
  0.06250000  0.93750000  0.06250000	0.000244140625
  0.06250000  0.93750000  0.12500000	0.000244140625
  0.06250000  0.93750000  0.18750000	0.000244140625
  0.06250000  0.93750000  0.25000000	0.000244140625
  0.06250000  0.93750000  0.31250000	0.000244140625
  0.06250000  0.93750000  0.37500000	0.000244140625
  0.06250000  0.93750000  0.43750000	0.000244140625
  0.06250000  0.93750000  0.50000000	0.000244140625
  0.06250000  0.93750000  0.56250000	0.000244140625
  0.06250000  0.93750000  0.62500000	0.000244140625
  0.06250000  0.93750000  0.68750000	0.000244140625
  0.06250000  0.93750000  0.75000000	0.000244140625
  0.06250000  0.93750000  0.81250000	0.000244140625
  0.06250000  0.93750000  0.87500000	0.000244140625
  0.06250000  0.93750000  0.93750000	0.000244140625
  0.12500000  0.00000000  0.00000000	0.000244140625
  0.12500000  0.00000000  0.06250000	0.000244140625
  0.12500000  0.00000000  0.12500000	0.000244140625
  0.12500000  0.00000000  0.18750000	0.000244140625
  0.12500000  0.00000000  0.25000000	0.000244140625
  0.12500000  0.00000000  0.31250000	0.000244140625
  0.12500000  0.00000000  0.37500000	0.000244140625
  0.12500000  0.00000000  0.43750000	0.000244140625
  0.12500000  0.00000000  0.50000000	0.000244140625
  0.12500000  0.00000000  0.56250000	0.000244140625
  0.12500000  0.00000000  0.62500000	0.000244140625
  0.12500000  0.00000000  0.68750000	0.000244140625
  0.12500000  0.00000000  0.75000000	0.000244140625
  0.12500000  0.00000000  0.81250000	0.000244140625
  0.12500000  0.00000000  0.87500000	0.000244140625
  0.12500000  0.00000000  0.93750000	0.000244140625
  0.12500000  0.06250000  0.00000000	0.000244140625
  0.12500000  0.06250000  0.06250000	0.000244140625
  0.12500000  0.06250000  0.12500000	0.000244140625
  0.12500000  0.06250000  0.18750000	0.000244140625
  0.12500000  0.06250000  0.25000000	0.000244140625
  0.12500000  0.06250000  0.31250000	0.000244140625
  0.12500000  0.06250000  0.37500000	0.000244140625
  0.12500000  0.06250000  0.43750000	0.000244140625
  0.12500000  0.06250000  0.50000000	0.000244140625
  0.12500000  0.06250000  0.56250000	0.000244140625
  0.12500000  0.06250000  0.62500000	0.000244140625
  0.12500000  0.06250000  0.68750000	0.000244140625
  0.12500000  0.06250000  0.75000000	0.000244140625
  0.12500000  0.06250000  0.81250000	0.000244140625
  0.12500000  0.06250000  0.87500000	0.000244140625
  0.12500000  0.06250000  0.93750000	0.000244140625
  0.12500000  0.12500000  0.00000000	0.000244140625
  0.12500000  0.12500000  0.06250000	0.000244140625
  0.12500000  0.12500000  0.12500000	0.000244140625
  0.12500000  0.12500000  0.18750000	0.000244140625
  0.12500000  0.12500000  0.25000000	0.000244140625
  0.12500000  0.12500000  0.31250000	0.000244140625
  0.12500000  0.12500000  0.37500000	0.000244140625
  0.12500000  0.12500000  0.43750000	0.000244140625
  0.12500000  0.12500000  0.50000000	0.000244140625
  0.12500000  0.12500000  0.56250000	0.000244140625
  0.12500000  0.12500000  0.62500000	0.000244140625