&BANDS
 outdir='./out/',
 prefix='bpbo',
 filband='BPBO.bands',
/