#### Debug by miki
iprint = 1

######### Spin Hall Conductivity
berry                 = true
berry_task            = shc
berry_kmesh           = 50 50 50
berry_curv_unit       = ang2

# Activate the two lines below to obtain a smoother Berry curvature
berry_curv_adpt_kmesh = 10
berry_curv_adpt_kmesh_thresh = 200.0

shc_freq_scan = false
shc_alpha = 1
shc_beta  = 2
shc_gamma = 3

######### Fermi Scan Section
fermi_energy_min      = 8.3371
fermi_energy_max      = 10.6371
fermi_energy_step     = 0.01

######### Berry Curvature-like Term Section
# Comment out "berry = true" in the "Spin Hall Conductivity" section
# Comment out "kpath = true"
# Comment out "fermi_energy" and the entire "Fermi Scan Section"

#kpath                = true
kpath_task            = bands+shc
kpath_bands_colour    = shc
kpath_num_points      = 400
kubo_adpt_smr         = false
kubo_smr_fixed_en_width = 0.05
#fermi_energy          = 9.4219


########## Heatmap Plot
# Comment out "kpath = true"
# Comment out the entire "Fermi Scan Section"
# Uncomment "kubo_smr_fixed_en_width" in the "Berry Curvature-like Term" section

#kslice               = true
kslice_task          = shc+fermi_lines
kslice_corner        = 0.0  0.00  0.0
kslice_b1            = 1.0  0.00  1.00
kslice_b2            = 0.0  1.00  0.00
kslice_2dkmesh       = 400 400

num_bands             = 432
num_wann              = 160
num_iter              = 0
spinors               = true

dis_win_min          = -2.000
dis_win_max          = 13.600
dis_froz_min         = -1.000
dis_froz_max         = 13.200

begin projections
  Bi: s
  Pb: s
   O: p
end projections

write_hr              = .TRUE.
write_hr_diag         = .TRUE.
#wannier_plot          = .TRUE.
bands_plot            = .TRUE.
use_ws_distance       = .TRUE.

begin kpoint_path
G	0.0000000000	0.0000000000	0.0000000000	X	0.0000000000	0.5000000000	0.0000000000
X	0.0000000000	0.5000000000	0.0000000000	M	0.5000000000	0.5000000000	0.0000000000
M	0.5000000000	0.5000000000	0.0000000000	R	0.5000000000	0.5000000000	0.5000000000
R	0.5000000000	0.5000000000	0.5000000000	G	0.0000000000 	0.0000000000 	0.0000000000
G	0.0000000000 	0.0000000000 	0.0000000000	M	0.5000000000	0.5000000000	0.0000000000
end kpoint_path

begin unit_cell_cart
ang
   8.720000267   0.000000000   0.000000000
   0.000000000   8.720000267   0.000000000
   0.000000000   0.000000000   8.720000267
end unit_cell_cart

begin atoms_frac
Ba           0.2500000000       0.2500000000       0.2500000000
Ba           0.2500000000       0.2500000000       0.7500000000
Ba           0.2500000000       0.7500000000       0.2500000000
Ba           0.2500000000       0.7500000000       0.7500000000
Ba           0.7500000000       0.2500000000       0.2500000000
Ba           0.7500000000       0.2500000000       0.7500000000
Ba           0.7500000000       0.7500000000       0.2500000000
Ba           0.7500000000       0.7500000000       0.7500000000
Bi           0.0000000000       0.0000000000       0.0000000000
Bi           0.5000000000       0.5000000000       0.5000000000
Pb           0.0000000000       0.0000000000       0.5000000000
Pb           0.0000000000       0.5000000000       0.0000000000
Pb           0.0000000000       0.5000000000       0.5000000000
Pb           0.5000000000       0.0000000000       0.0000000000
Pb           0.5000000000       0.0000000000       0.5000000000
Pb           0.5000000000       0.5000000000       0.0000000000
O            0.0000000000       0.2500000000       0.0000000000
O            0.0000000000       0.2500000000       0.5000000000
O            0.0000000000       0.7500000000       0.0000000000
O            0.0000000000       0.7500000000       0.5000000000
O            0.5000000000       0.2500000000       0.0000000000
O            0.5000000000       0.2500000000       0.5000000000
O            0.5000000000       0.7500000000       0.0000000000
O            0.5000000000       0.7500000000       0.5000000000
O            0.0000000000       0.0000000000       0.2500000000
O            0.0000000000       0.0000000000       0.7500000000
O            0.0000000000       0.5000000000       0.2500000000
O            0.0000000000       0.5000000000       0.7500000000
O            0.5000000000       0.0000000000       0.2500000000
O            0.5000000000       0.0000000000       0.7500000000
O            0.5000000000       0.5000000000       0.2500000000
O            0.5000000000       0.5000000000       0.7500000000
O            0.2500000000       0.0000000000       0.0000000000
O            0.2500000000       0.0000000000       0.5000000000
O            0.2500000000       0.5000000000       0.0000000000
O            0.2500000000       0.5000000000       0.5000000000
O            0.7500000000       0.0000000000       0.0000000000
O            0.7500000000       0.0000000000       0.5000000000
O            0.7500000000       0.5000000000       0.0000000000
O            0.7500000000       0.5000000000       0.5000000000
end atoms_frac

mp_grid :  4 4 4

begin kpoints
  0.00000000  0.00000000  0.00000000	0.015625
  0.00000000  0.00000000  0.25000000	0.015625
  0.00000000  0.00000000  0.50000000	0.015625
  0.00000000  0.00000000  0.75000000	0.015625
  0.00000000  0.25000000  0.00000000	0.015625
  0.00000000  0.25000000  0.25000000	0.015625
  0.00000000  0.25000000  0.50000000	0.015625
  0.00000000  0.25000000  0.75000000	0.015625
  0.00000000  0.50000000  0.00000000	0.015625
  0.00000000  0.50000000  0.25000000	0.015625
  0.00000000  0.50000000  0.50000000	0.015625
  0.00000000  0.50000000  0.75000000	0.015625
  0.00000000  0.75000000  0.00000000	0.015625
  0.00000000  0.75000000  0.25000000	0.015625
  0.00000000  0.75000000  0.50000000	0.015625
  0.00000000  0.75000000  0.75000000	0.015625
  0.25000000  0.00000000  0.00000000	0.015625
  0.25000000  0.00000000  0.25000000	0.015625
  0.25000000  0.00000000  0.50000000	0.015625
  0.25000000  0.00000000  0.75000000	0.015625
  0.25000000  0.25000000  0.00000000	0.015625
  0.25000000  0.25000000  0.25000000	0.015625
  0.25000000  0.25000000  0.50000000	0.015625
  0.25000000  0.25000000  0.75000000	0.015625
  0.25000000  0.50000000  0.00000000	0.015625
  0.25000000  0.50000000  0.25000000	0.015625
  0.25000000  0.50000000  0.50000000	0.015625
  0.25000000  0.50000000  0.75000000	0.015625
  0.25000000  0.75000000  0.00000000	0.015625
  0.25000000  0.75000000  0.25000000	0.015625
  0.25000000  0.75000000  0.50000000	0.015625
  0.25000000  0.75000000  0.75000000	0.015625
  0.50000000  0.00000000  0.00000000	0.015625
  0.50000000  0.00000000  0.25000000	0.015625
  0.50000000  0.00000000  0.50000000	0.015625
  0.50000000  0.00000000  0.75000000	0.015625
  0.50000000  0.25000000  0.00000000	0.015625
  0.50000000  0.25000000  0.25000000	0.015625
  0.50000000  0.25000000  0.50000000	0.015625
  0.50000000  0.25000000  0.75000000	0.015625
  0.50000000  0.50000000  0.00000000	0.015625
  0.50000000  0.50000000  0.25000000	0.015625
  0.50000000  0.50000000  0.50000000	0.015625
  0.50000000  0.50000000  0.75000000	0.015625
  0.50000000  0.75000000  0.00000000	0.015625
  0.50000000  0.75000000  0.25000000	0.015625
  0.50000000  0.75000000  0.50000000	0.015625
  0.50000000  0.75000000  0.75000000	0.015625
  0.75000000  0.00000000  0.00000000	0.015625
  0.75000000  0.00000000  0.25000000	0.015625
  0.75000000  0.00000000  0.50000000	0.015625
  0.75000000  0.00000000  0.75000000	0.015625
  0.75000000  0.25000000  0.00000000	0.015625
  0.75000000  0.25000000  0.25000000	0.015625
  0.75000000  0.25000000  0.50000000	0.015625
  0.75000000  0.25000000  0.75000000	0.015625
  0.75000000  0.50000000  0.00000000	0.015625
  0.75000000  0.50000000  0.25000000	0.015625
  0.75000000  0.50000000  0.50000000	0.015625
  0.75000000  0.50000000  0.75000000	0.015625
  0.75000000  0.75000000  0.00000000	0.015625
  0.75000000  0.75000000  0.25000000	0.015625
  0.75000000  0.75000000  0.50000000	0.015625
  0.75000000  0.75000000  0.75000000	0.015625
end kpoints
