&CONTROL
  calculation = 'nscf'
  outdir = './out/'
  prefix = 'bpbo'
  pseudo_dir = './pseudo/'
  verbosity  = 'high'
/
&SYSTEM
  degauss =   7.3498618000d-03
  ecutrho =   6.0000000000d+02
  ecutwfc =   7.5000000000d+01
  ibrav = 0
  nat = 40
  nosym = .false.
  ntyp = 4
  nbnd = 432
  occupations = 'smearing'
  smearing = 'cold'
  lspinorb = .true.
  noncolin = .true.
/
&ELECTRONS
  conv_thr =   1.0000000000d-11
  mixing_beta =   0.2
/
ATOMIC_SPECIES
Ba     137.327          Ba.rel-pbe-spn-rrkjus_psl.1.0.0.UPF
O      15.9994          O.rel-pbe-n-rrkjus_psl.1.0.0.UPF
Pb     207.2            Pb.rel-pbe-dn-rrkjus_psl.1.0.0.UPF
Bi     208.9804         Bi.rel-pbe-dn-rrkjus_psl.1.0.0.UPF

ATOMIC_POSITIONS crystal
Ba           0.2500000000       0.2500000000       0.2500000000 
Ba           0.2500000000       0.2500000000       0.7500000000 
Ba           0.2500000000       0.7500000000       0.2500000000 
Ba           0.2500000000       0.7500000000       0.7500000000 
Ba           0.7500000000       0.2500000000       0.2500000000 
Ba           0.7500000000       0.2500000000       0.7500000000 
Ba           0.7500000000       0.7500000000       0.2500000000 
Ba           0.7500000000       0.7500000000       0.7500000000 
Bi           0.0000000000       0.0000000000       0.0000000000 
Bi           0.5000000000       0.5000000000       0.5000000000 
Pb           0.0000000000       0.0000000000       0.5000000000 
Pb           0.0000000000       0.5000000000       0.0000000000 
Pb           0.0000000000       0.5000000000       0.5000000000 
Pb           0.5000000000       0.0000000000       0.0000000000 
Pb           0.5000000000       0.0000000000       0.5000000000 
Pb           0.5000000000       0.5000000000       0.0000000000 
O            0.0000000000       0.2500000000       0.0000000000 
O            0.0000000000       0.2500000000       0.5000000000 
O            0.0000000000       0.7500000000       0.0000000000 
O            0.0000000000       0.7500000000       0.5000000000 
O            0.5000000000       0.2500000000       0.0000000000 
O            0.5000000000       0.2500000000       0.5000000000 
O            0.5000000000       0.7500000000       0.0000000000 
O            0.5000000000       0.7500000000       0.5000000000 
O            0.0000000000       0.0000000000       0.2500000000 
O            0.0000000000       0.0000000000       0.7500000000 
O            0.0000000000       0.5000000000       0.2500000000 
O            0.0000000000       0.5000000000       0.7500000000 
O            0.5000000000       0.0000000000       0.2500000000 
O            0.5000000000       0.0000000000       0.7500000000 
O            0.5000000000       0.5000000000       0.2500000000 
O            0.5000000000       0.5000000000       0.7500000000 
O            0.2500000000       0.0000000000       0.0000000000 
O            0.2500000000       0.0000000000       0.5000000000 
O            0.2500000000       0.5000000000       0.0000000000 
O            0.2500000000       0.5000000000       0.5000000000 
O            0.7500000000       0.0000000000       0.0000000000 
O            0.7500000000       0.0000000000       0.5000000000 
O            0.7500000000       0.5000000000       0.0000000000 
O            0.7500000000       0.5000000000       0.5000000000 

K_POINTS crystal_b
64
  0.00000000  0.00000000  0.00000000	0.015625
  0.00000000  0.00000000  0.25000000	0.015625
  0.00000000  0.00000000  0.50000000	0.015625
  0.00000000  0.00000000  0.75000000	0.015625
  0.00000000  0.25000000  0.00000000	0.015625
  0.00000000  0.25000000  0.25000000	0.015625
  0.00000000  0.25000000  0.50000000	0.015625
  0.00000000  0.25000000  0.75000000	0.015625
  0.00000000  0.50000000  0.00000000	0.015625
  0.00000000  0.50000000  0.25000000	0.015625
  0.00000000  0.50000000  0.50000000	0.015625
  0.00000000  0.50000000  0.75000000	0.015625
  0.00000000  0.75000000  0.00000000	0.015625
  0.00000000  0.75000000  0.25000000	0.015625
  0.00000000  0.75000000  0.50000000	0.015625
  0.00000000  0.75000000  0.75000000	0.015625
  0.25000000  0.00000000  0.00000000	0.015625
  0.25000000  0.00000000  0.25000000	0.015625
  0.25000000  0.00000000  0.50000000	0.015625
  0.25000000  0.00000000  0.75000000	0.015625
  0.25000000  0.25000000  0.00000000	0.015625
  0.25000000  0.25000000  0.25000000	0.015625
  0.25000000  0.25000000  0.50000000	0.015625
  0.25000000  0.25000000  0.75000000	0.015625
  0.25000000  0.50000000  0.00000000	0.015625
  0.25000000  0.50000000  0.25000000	0.015625
  0.25000000  0.50000000  0.50000000	0.015625
  0.25000000  0.50000000  0.75000000	0.015625
  0.25000000  0.75000000  0.00000000	0.015625
  0.25000000  0.75000000  0.25000000	0.015625
  0.25000000  0.75000000  0.50000000	0.015625
  0.25000000  0.75000000  0.75000000	0.015625
  0.50000000  0.00000000  0.00000000	0.015625
  0.50000000  0.00000000  0.25000000	0.015625
  0.50000000  0.00000000  0.50000000	0.015625
  0.50000000  0.00000000  0.75000000	0.015625
  0.50000000  0.25000000  0.00000000	0.015625
  0.50000000  0.25000000  0.25000000	0.015625
  0.50000000  0.25000000  0.50000000	0.015625
  0.50000000  0.25000000  0.75000000	0.015625
  0.50000000  0.50000000  0.00000000	0.015625
  0.50000000  0.50000000  0.25000000	0.015625
  0.50000000  0.50000000  0.50000000	0.015625
  0.50000000  0.50000000  0.75000000	0.015625
  0.50000000  0.75000000  0.00000000	0.015625
  0.50000000  0.75000000  0.25000000	0.015625
  0.50000000  0.75000000  0.50000000	0.015625
  0.50000000  0.75000000  0.75000000	0.015625
  0.75000000  0.00000000  0.00000000	0.015625
  0.75000000  0.00000000  0.25000000	0.015625
  0.75000000  0.00000000  0.50000000	0.015625
  0.75000000  0.00000000  0.75000000	0.015625
  0.75000000  0.25000000  0.00000000	0.015625
  0.75000000  0.25000000  0.25000000	0.015625
  0.75000000  0.25000000  0.50000000	0.015625
  0.75000000  0.25000000  0.75000000	0.015625
  0.75000000  0.50000000  0.00000000	0.015625
  0.75000000  0.50000000  0.25000000	0.015625
  0.75000000  0.50000000  0.50000000	0.015625
  0.75000000  0.50000000  0.75000000	0.015625
  0.75000000  0.75000000  0.00000000	0.015625
  0.75000000  0.75000000  0.25000000	0.015625
  0.75000000  0.75000000  0.50000000	0.015625
  0.75000000  0.75000000  0.75000000	0.015625
  
CELL_PARAMETERS angstrom
   8.720000267   0.000000000   0.000000000
   0.000000000   8.720000267   0.000000000
   0.000000000   0.000000000   8.720000267
